
Gurobi 6.0.2 (mac64) logging started Thu Aug 20 15:57:32 2015

Optimize a model with 5 rows, 5 columns and 25 nonzeros
Coefficient statistics:
  Matrix range    [5e+00, 5e+01]
  Objective range [1e+01, 2e+01]
  Bounds range    [0e+00, 0e+00]
  RHS range       [2e+01, 2e+01]
Presolve time: 0.00s
Presolved: 5 rows, 5 columns, 25 nonzeros

Iteration    Objective       Primal Inf.    Dual Inf.      Time
       0    0.0000000e+00   1.421875e+00   0.000000e+00      0s
       2    8.6978673e+00   0.000000e+00   0.000000e+00      0s

Solved in 2 iterations and 0.01 seconds
Optimal objective  8.697867299e+00
Optimize a model with 5 rows, 5 columns and 5 nonzeros
Coefficient statistics:
  Matrix range    [7e+01, 2e+02]
  Objective range [2e+01, 2e+01]
  Bounds range    [0e+00, 0e+00]
  RHS range       [1e+01, 2e+01]
Presolve removed 5 rows and 5 columns
Presolve time: 0.01s
Presolve: All rows and columns removed
Iteration    Objective       Primal Inf.    Dual Inf.      Time
       0    1.0189809e+01   0.000000e+00   0.000000e+00      0s

Solved in 0 iterations and 0.01 seconds
Optimal objective  1.018980898e+01

Gurobi 6.0.2 (mac64) logging started Thu Aug 20 16:15:10 2015

Optimize a model with 5 rows, 10 columns and 30 nonzeros
Coefficient statistics:
  Matrix range    [1e+00, 5e+01]
  Objective range [1e+01, 2e+01]
  Bounds range    [0e+00, 0e+00]
  RHS range       [1e+01, 2e+01]
Presolve removed 0 rows and 5 columns
Presolve time: 0.00s
Presolved: 5 rows, 5 columns, 25 nonzeros

Iteration    Objective       Primal Inf.    Dual Inf.      Time
       0    0.0000000e+00   1.171875e+00   0.000000e+00      0s
       1    1.1875000e+01   0.000000e+00   0.000000e+00      0s

Solved in 1 iterations and 0.01 seconds
Optimal objective  1.187500000e+01
Optimize a model with 5 rows, 10 columns and 30 nonzeros
Coefficient statistics:
  Matrix range    [1e+00, 5e+01]
  Objective range [1e+01, 2e+01]
  Bounds range    [0e+00, 0e+00]
  RHS range       [1e+01, 2e+01]
Presolve removed 0 rows and 5 columns
Presolve time: 0.00s
Presolved: 5 rows, 5 columns, 25 nonzeros

Iteration    Objective       Primal Inf.    Dual Inf.      Time
       0    2.5420594e+01   2.807193e+00   0.000000e+00      0s
       4    1.1875000e+01   0.000000e+00   0.000000e+00      0s

Solved in 4 iterations and 0.01 seconds
Optimal objective  1.187500000e+01

Gurobi 6.0.2 (mac64) logging started Thu Aug 20 16:15:42 2015

Optimize a model with 5 rows, 5 columns and 25 nonzeros
Coefficient statistics:
  Matrix range    [6e+00, 5e+01]
  Objective range [1e+01, 2e+01]
  Bounds range    [0e+00, 0e+00]
  RHS range       [1e+01, 2e+01]
Presolve time: 0.00s
Presolved: 5 rows, 5 columns, 25 nonzeros

Iteration    Objective       Primal Inf.    Dual Inf.      Time
       0    0.0000000e+00   1.375000e+00   0.000000e+00      0s
       3    1.2815174e+01   0.000000e+00   0.000000e+00      0s

Solved in 3 iterations and 0.01 seconds
Optimal objective  1.281517399e+01
Optimize a model with 5 rows, 5 columns and 5 nonzeros
Coefficient statistics:
  Matrix range    [9e+01, 1e+02]
  Objective range [1e+01, 2e+01]
  Bounds range    [0e+00, 0e+00]
  RHS range       [1e+01, 2e+01]
Presolve removed 5 rows and 5 columns
Presolve time: 0.00s
Presolve: All rows and columns removed
Iteration    Objective       Primal Inf.    Dual Inf.      Time
       0    9.6376812e+00   0.000000e+00   0.000000e+00      0s

Solved in 0 iterations and 0.01 seconds
Optimal objective  9.637681244e+00
Optimize a model with 50 rows, 50 columns and 2500 nonzeros
Coefficient statistics:
  Matrix range    [5e+00, 5e+01]
  Objective range [1e+01, 2e+01]
  Bounds range    [0e+00, 0e+00]
  RHS range       [1e+01, 2e+01]
Presolve time: 0.00s
Presolved: 50 rows, 50 columns, 2500 nonzeros

Iteration    Objective       Primal Inf.    Dual Inf.      Time
       0    0.0000000e+00   1.137500e+01   0.000000e+00      0s
      17    7.3083762e+00   0.000000e+00   0.000000e+00      0s

Solved in 17 iterations and 0.01 seconds
Optimal objective  7.308376205e+00
Optimize a model with 50 rows, 50 columns and 50 nonzeros
Coefficient statistics:
  Matrix range    [1e+03, 2e+03]
  Objective range [1e+01, 2e+01]
  Bounds range    [0e+00, 0e+00]
  RHS range       [1e+01, 2e+01]
Presolve removed 50 rows and 50 columns
Presolve time: 0.00s
Presolve: All rows and columns removed
Iteration    Objective       Primal Inf.    Dual Inf.      Time
       0    7.7594099e+00   0.000000e+00   0.000000e+00      0s

Solved in 0 iterations and 0.00 seconds
Optimal objective  7.759409923e+00
Optimize a model with 500 rows, 1000 columns and 250500 nonzeros
Coefficient statistics:
  Matrix range    [1e+00, 5e+01]
  Objective range [1e+01, 2e+01]
  Bounds range    [0e+00, 0e+00]
  RHS range       [1e+01, 2e+01]

Concurrent LP optimizer: dual simplex and barrier
Showing barrier log only...

Presolve removed 0 rows and 500 columns
Presolve time: 0.15s
Presolved: 500 rows, 500 columns, 250000 nonzeros

Ordering time: 0.00s

Barrier statistics:
 AA' NZ     : 1.248e+05
 Factor NZ  : 1.252e+05 (roughly 1 MByte of memory)
 Factor Ops : 4.179e+07 (less than 1 second per iteration)
 Threads    : 1

Barrier performed 0 iterations in 0.23 seconds
Barrier solve interrupted - model solved by another algorithm


Solved with dual simplex
Solved in 137 iterations and 0.25 seconds
Optimal objective  7.066624192e+00
Optimize a model with 500 rows, 1000 columns and 250500 nonzeros
Coefficient statistics:
  Matrix range    [1e+00, 5e+01]
  Objective range [1e+01, 2e+01]
  Bounds range    [0e+00, 0e+00]
  RHS range       [1e+01, 2e+01]

Concurrent LP optimizer: dual simplex and barrier
Showing barrier log only...

Presolve removed 0 rows and 500 columns
Presolve time: 0.06s
Presolved: 500 rows, 500 columns, 250000 nonzeros

Ordering time: 0.00s

Barrier statistics:
 AA' NZ     : 1.248e+05
 Factor NZ  : 1.252e+05 (roughly 1 MByte of memory)
 Factor Ops : 4.179e+07 (less than 1 second per iteration)
 Threads    : 1

Barrier performed 0 iterations in 0.14 seconds
Barrier solve interrupted - model solved by another algorithm


Solved with dual simplex
Solved in 210 iterations and 0.16 seconds
Optimal objective  7.066624192e+00
Optimize a model with 500 rows, 500 columns and 250000 nonzeros
Coefficient statistics:
  Matrix range    [5e+00, 5e+01]
  Objective range [1e+01, 2e+01]
  Bounds range    [0e+00, 0e+00]
  RHS range       [1e+01, 2e+01]

Concurrent LP optimizer: dual simplex and barrier
Showing barrier log only...

Presolve time: 0.06s
Presolved: 500 rows, 500 columns, 250000 nonzeros

Ordering time: 0.00s

Barrier statistics:
 AA' NZ     : 1.248e+05
 Factor NZ  : 1.252e+05 (roughly 1 MByte of memory)
 Factor Ops : 4.179e+07 (less than 1 second per iteration)
 Threads    : 1

Barrier performed 0 iterations in 0.15 seconds
Barrier solve interrupted - model solved by another algorithm


Solved with dual simplex
Solved in 139 iterations and 0.17 seconds
Optimal objective  7.049722515e+00
Optimize a model with 500 rows, 500 columns and 500 nonzeros
Coefficient statistics:
  Matrix range    [1e+04, 1e+04]
  Objective range [1e+01, 2e+01]
  Bounds range    [0e+00, 0e+00]
  RHS range       [1e+01, 2e+01]
Presolve removed 500 rows and 500 columns
Presolve time: 0.01s
Presolve: All rows and columns removed
Iteration    Objective       Primal Inf.    Dual Inf.      Time
       0    7.7435250e+00   0.000000e+00   0.000000e+00      0s

Solved in 0 iterations and 0.01 seconds
Optimal objective  7.743525048e+00
